c 67_3_checker_5cl.cnf
c
c field = 67
c formula set type = 3_checker_5cl
c
p cnf 5 6
42 
72 
102 
-13 
-162 
43 
73 
103 
-12 
-163 
36 
68 
100 
-5 
-164 
37 
69 
101 
-4 
-165 
48 
76 
104 
-21 
-160 
49 
77 
105 
-20 
-161 
